2593.03
0 20 66 64 11 8 5 6 13 14 2 4 12 28 0
0 35 29 24 25 23 22 21 15 91 16 17 46 19 148 10 52 0
0 44 38 43 42 37 36 31 32 30 33 34 39 41 40 0
0 60 45 49 47 48 7 1 50 51 3 54 55 56 57 0
0 59 61 114 62 63 65 68 67 58 69 0
0 84 83 82 143 70 71 81 78 77 76 80 72 75 74 73 137 0
0 90 88 85 86 93 92 87 95 94 89 0
0 102 101 108 107 106 100 98 104 99 96 97 105 53 0
0 127 126 79 129 121 109 110 115 118 113 119 117 112 0
0 123 124 125 133 130 120 9 136 122 132 27 26 0
0 135 134 139 145 141 140 142 144 147 18 146 138 0
0 131 128 103 116 150 149 111 0
